c ind 222 221 220 219 218 217 216 215 214 213 212 211 210 209 208 207 206 205 204 203 202 201 200 199 198 197 196 195 194 193 192 191  0
c ind 159 158 157 156 155 154 153 152 151 150 149 148 147 146 145 144 143 142 141 140 139 138 137 136 135 134 133 132 131 130 129 128  0
c ind 33 32 31 30 29 28 27 26 25 24 23 22 21 20 19 18 17 16 15 14 13 12 11 10 9 8 7 6 5 4 3 2  0
c ind 96 95 94 93 92 91 90 89 88 87 86 85 84 83 82 81 80 79 78 77 76 75 74 73 72 71 70 69 68 67 66 65  0
c ind 285 284 283 282 281 280 279 278 277 276 275 274 273 272 271 270 269 268 267 266 265 264 263 262 261 260 259 258 257 256 255 254  0
p cnf 316 345
1 0
-2 0
-3 0
-4 0
-5 0
-6 0
-7 0
-8 0
-9 0
-10 0
-11 0
-12 0
-13 0
-14 0
-15 0
-16 0
-17 0
-18 0
-19 0
-20 0
-21 0
-22 0
-23 0
-24 0
-25 0
-26 0
-27 0
-28 0
-29 0
-30 0
-31 0
-32 0
-33 0
34 0
35 0
36 0
37 0
38 0
39 0
40 0
41 0
42 0
43 0
44 0
45 0
46 0
47 0
48 0
49 0
50 0
51 0
52 0
53 0
54 0
55 0
56 0
57 0
58 0
59 0
60 0
61 0
62 0
63 0
64 0
-65 0
-66 0
-67 0
-68 0
-69 0
-70 0
-71 0
-72 0
-73 0
-74 0
-75 0
-76 0
-77 0
-78 0
-79 0
-80 0
-81 0
-82 0
-83 0
-84 0
-85 0
-86 0
-87 0
-88 0
-89 0
-90 0
-91 0
-92 0
-93 0
-94 0
-95 0
-96 0
97 0
98 0
99 0
100 0
101 0
102 0
103 0
104 0
105 0
106 0
107 0
108 0
109 0
110 0
111 0
112 0
113 0
114 0
115 0
116 0
117 0
118 0
119 0
120 0
121 0
122 0
123 0
124 0
125 0
126 0
127 0
-128 0
-129 0
-130 0
-131 0
-132 0
-133 0
-134 0
-135 0
-136 0
-137 0
-138 0
-139 0
-140 0
-141 0
-142 0
-143 0
-144 0
-145 0
-146 0
-147 0
-148 0
-149 0
-150 0
-151 0
-152 0
-153 0
-154 0
-155 0
-156 0
-157 0
-158 0
-159 0
160 0
161 0
162 0
163 0
164 0
165 0
166 0
167 0
168 0
169 0
170 0
171 0
172 0
173 0
174 0
175 0
176 0
177 0
178 0
179 0
180 0
181 0
182 0
183 0
184 0
185 0
186 0
187 0
188 0
189 0
190 0
-191 0
-192 0
-193 0
-194 0
-195 0
-196 0
-197 0
-198 0
-199 0
-200 0
-201 0
-202 0
-203 0
-204 0
-205 0
-206 0
-207 0
-208 0
-209 0
-210 0
-211 0
-212 0
-213 0
-214 0
-215 0
-216 0
-217 0
-218 0
-219 0
-220 0
-221 0
-222 0
223 0
224 0
225 0
226 0
227 0
228 0
229 0
230 0
231 0
232 0
233 0
234 0
235 0
236 0
237 0
238 0
239 0
240 0
241 0
242 0
243 0
244 0
245 0
246 0
247 0
248 0
249 0
250 0
251 0
252 0
253 0
-316 0
-254 -286 0
254 255 286 0
-255 -286 0
-256 -287 0
256 -286 287 0
-257 -288 0
257 -287 288 0
-258 -289 0
258 -288 289 0
-259 -290 0
259 -289 290 0
-260 -291 0
260 -290 291 0
-261 -292 0
261 -291 292 0
-262 -293 0
262 -292 293 0
-263 -294 0
263 -293 294 0
-264 -295 0
264 -294 295 0
-265 -296 0
265 -295 296 0
-266 -297 0
266 -296 297 0
-267 -298 0
267 -297 298 0
-268 -299 0
268 -298 299 0
-269 -300 0
269 -299 300 0
-270 -301 0
270 -300 301 0
-271 -302 0
271 -301 302 0
-272 -303 0
272 -302 303 0
-273 -304 0
273 -303 304 0
-274 -305 0
274 -304 305 0
-275 -306 0
275 -305 306 0
-276 -307 0
276 -306 307 0
-277 -308 0
277 -307 308 0
-278 -309 0
278 -308 309 0
-279 -310 0
279 -309 310 0
-280 -311 0
280 -310 311 0
-281 -312 0
281 -311 312 0
-282 -313 0
282 -312 313 0
-283 -314 0
283 -313 314 0
-284 -315 0
284 -314 315 0
285 -315 0
286 -287 0
287 -288 0
288 -289 0
289 -290 0
290 -291 0
291 -292 0
292 -293 0
293 -294 0
294 -295 0
295 -296 0
296 -297 0
297 -298 0
298 -299 0
299 -300 0
300 -301 0
301 -302 0
302 -303 0
303 -304 0
304 -305 0
305 -306 0
306 -307 0
307 -308 0
308 -309 0
309 -310 0
310 -311 0
311 -312 0
312 -313 0
313 -314 0
314 -315 0
